Traveling Salesman Problem/TSP_generados/Aleatorio1620390902_8.tsp
NAME: Aleatorio1620390902_8.tsp
COMMENT: Randomly generated scenario
TYPE: TSP
DIMENSION: 8
EDGE_WEIGHT_TYPE: ATT
NODE_COORD_SECTION
1 37.43 34.66
2 28.27 20.74
3 47.08 44.65
4 28.67 28.11
5 18.14 19.66
6 35.04 21.14
7 48.56 36.64
8 38.97 12.34
