Traveling Salesman Problem/TSP_generados/Aleatorio1620390902_8.opt.tour
NAME: Aleatorio1620390902_8.opt.tour
COMMENT: Optimal solution for Aleatorio1620390902_8 (99.20528404578965)
TYPE: TOUR
DIMENSION: 8
TOUR_SECTION
1 3 7 8 6 2 5 4
-1
EOF
